(set-logic QF_NRA)
(set-info :source |Benchmarks generated from hycomp (https://es-static.fbk.eu/tools/hycomp/). BMC instances of non-linear hybrid automata taken from: Alessandro Cimatti, Sergio Mover, Stefano Tonetta, A quantifier-free SMT encoding of non-linear hybrid automata, FMCAD 2012 and Alessandro Cimatti, Sergio Mover, Stefano Tonetta, Quantier-free encoding of invariants for Hybrid Systems, Formal Methods in System Design. This instance solves a BMC problem of depth 3 and uses the quantifier free encoding with equivalences encoding. Contacts: Sergio Mover (mover@fbk.eu), Stefano Tonetta (tonettas@fbk.eu), Alessandro Cimatti (cimatti@fbk.eu).|)
(set-info :smt-lib-version 2.0)
(set-info :category "industrial")
(set-info :status unsat)
;; MathSAT API call trace
;; generated on Mon Mar 19 10:47:26 2012
(declare-fun b.speed_x__AT2 () Real)
(declare-fun b.speed_y__AT2 () Real)
(declare-fun b.speed_x__AT1 () Real)
(declare-fun b.speed_y__AT3 () Real)
(declare-fun b.time__AT1 () Real)
(declare-fun b.x__AT1 () Real)
(declare-fun b.event_is_timed__AT1 () Bool)
(declare-fun b.counter.0__AT1 () Bool)
(declare-fun b.EVENT.1__AT0 () Bool)
(declare-fun b.speed_loss__AT0 () Real)
(declare-fun b.counter.1__AT1 () Bool)
(declare-fun b.speed_x__AT0 () Real)
(declare-fun b.x__AT3 () Real)
(declare-fun b.EVENT.0__AT3 () Bool)
(declare-fun b.counter.2__AT1 () Bool)
(declare-fun b.time__AT0 () Real)
(declare-fun b.EVENT.1__AT3 () Bool)
(declare-fun b.counter.2__AT0 () Bool)
(declare-fun b.counter.3__AT1 () Bool)
(declare-fun b.bool_atom__AT1 () Bool)
(declare-fun b.x__AT0 () Real)
(declare-fun b.speed_x__AT3 () Real)
(declare-fun b.speed_y__AT1 () Real)
(declare-fun b.delta__AT1 () Real)
(declare-fun b.bool_atom__AT0 () Bool)
(declare-fun b.y__AT0 () Real)
(declare-fun b.EVENT.1__AT1 () Bool)
(declare-fun b.EVENT.0__AT1 () Bool)
(declare-fun b.counter.0__AT0 () Bool)
(declare-fun b.event_is_timed__AT2 () Bool)
(declare-fun b.delta__AT0 () Real)
(declare-fun b.counter.1__AT0 () Bool)
(declare-fun b.y__AT1 () Real)
(declare-fun b.EVENT.0__AT0 () Bool)
(declare-fun b.time__AT2 () Real)
(declare-fun b.y__AT2 () Real)
(declare-fun b.y__AT3 () Real)
(declare-fun b.delta__AT2 () Real)
(declare-fun b.counter.0__AT2 () Bool)
(declare-fun b.counter.0__AT3 () Bool)
(declare-fun b.speed_y__AT0 () Real)
(declare-fun b.x__AT2 () Real)
(declare-fun b.EVENT.0__AT2 () Bool)
(declare-fun b.counter.1__AT2 () Bool)
(declare-fun b.counter.1__AT3 () Bool)
(declare-fun b.EVENT.1__AT2 () Bool)
(declare-fun b.counter.2__AT2 () Bool)
(declare-fun b.event_is_timed__AT0 () Bool)
(declare-fun b.counter.2__AT3 () Bool)
(declare-fun b.counter.3__AT2 () Bool)
(declare-fun b.time__AT3 () Real)
(declare-fun b.counter.3__AT3 () Bool)
(declare-fun b.bool_atom__AT2 () Bool)
(declare-fun b.delta__AT3 () Real)
(declare-fun b.bool_atom__AT3 () Bool)
(declare-fun b.event_is_timed__AT3 () Bool)
(declare-fun b.counter.3__AT0 () Bool)
(assert (let ((.def_859 (* (- 1.0) b.speed_x__AT3)))
(let ((.def_860 (* b.speed_x__AT3 .def_859)))
(let ((.def_861 (* (- 1.0) .def_860)))
(let ((.def_892 (* 2.0 .def_861)))
(let ((.def_893 (* b.delta__AT3 .def_892)))
(let ((.def_894 (* 5.0 .def_893)))
(let ((.def_795 (* (- 1.0) b.x__AT3)))
(let ((.def_872 (* b.speed_x__AT3 .def_795)))
(let ((.def_897 (* (- 5.0) .def_872)))
(let ((.def_903 (+ .def_897 .def_894)))
(let ((.def_867 (* b.x__AT3 .def_859)))
(let ((.def_895 (* (- 5.0) .def_867)))
(let ((.def_904 (+ .def_895 .def_903)))
(let ((.def_899 (* (- 49.0) b.delta__AT3)))
(let ((.def_905 (+ .def_899 .def_904)))
(let ((.def_901 (* 5.0 b.speed_y__AT3)))
(let ((.def_906 (+ .def_901 .def_905)))
(let ((.def_910 (<= .def_906 0.0 )))
(let ((.def_873 (* (- 1.0) .def_872)))
(let ((.def_868 (* (- 1.0) .def_867)))
(let ((.def_889 (+ .def_868 .def_873)))
(let ((.def_890 (+ b.speed_y__AT3 .def_889)))
(let ((.def_909 (<= .def_890 0.0 )))
(let ((.def_911 (and .def_909 .def_910)))
(let ((.def_907 (<= 0.0 .def_906)))
(let ((.def_891 (<= 0.0 .def_890)))
(let ((.def_908 (and .def_891 .def_907)))
(let ((.def_912 (or .def_908 .def_911)))
(let ((.def_874 (* b.delta__AT3 .def_873)))
(let ((.def_875 (* 10.0 .def_874)))
(let ((.def_869 (* b.delta__AT3 .def_868)))
(let ((.def_870 (* 10.0 .def_869)))
(let ((.def_881 (+ .def_870 .def_875)))
(let ((.def_858 (* b.delta__AT3 b.delta__AT3)))
(let ((.def_862 (* .def_858 .def_861)))
(let ((.def_863 (* 10.0 .def_862)))
(let ((.def_882 (+ .def_863 .def_881)))
(let ((.def_865 (* (- 49.0) .def_858)))
(let ((.def_883 (+ .def_865 .def_882)))
(let ((.def_856 (* b.speed_y__AT3 b.delta__AT3)))
(let ((.def_857 (* 10.0 .def_856)))
(let ((.def_884 (+ .def_857 .def_883)))
(let ((.def_841 (* b.x__AT3 .def_795)))
(let ((.def_877 (* (- 10.0) .def_841)))
(let ((.def_885 (+ .def_877 .def_884)))
(let ((.def_879 (* 10.0 b.y__AT3)))
(let ((.def_886 (+ .def_879 .def_885)))
(let ((.def_887 (<= 0.0 .def_886)))
(let ((.def_842 (<= .def_841 b.y__AT3)))
(let ((.def_888 (and .def_842 .def_887)))
(let ((.def_913 (and .def_888 .def_912)))
(let ((.def_72 (<= b.speed_loss__AT0 (/ 1 2))))
(let ((.def_69 (<= (/ 1 10) b.speed_loss__AT0)))
(let ((.def_73 (and .def_69 .def_72)))
(let ((.def_914 (and .def_73 .def_913)))
(let ((.def_502 (not b.counter.0__AT2)))
(let ((.def_492 (not b.counter.1__AT2)))
(let ((.def_847 (and .def_492 .def_502)))
(let ((.def_851 (or b.counter.3__AT2 .def_847)))
(let ((.def_848 (or b.counter.2__AT2 .def_847)))
(let ((.def_497 (not b.counter.2__AT2)))
(let ((.def_846 (or .def_492 .def_497)))
(let ((.def_849 (and .def_846 .def_848)))
(let ((.def_511 (not b.counter.3__AT2)))
(let ((.def_850 (or .def_511 .def_849)))
(let ((.def_852 (and .def_850 .def_851)))
(let ((.def_843 (and .def_73 .def_842)))
(let ((.def_838 (not b.EVENT.0__AT3)))
(let ((.def_836 (not b.EVENT.1__AT3)))
(let ((.def_839 (or .def_836 .def_838)))
(let ((.def_9 (not b.counter.0__AT3)))
(let ((.def_6 (not b.counter.1__AT3)))
(let ((.def_829 (or .def_6 .def_9)))
(let ((.def_833 (or b.counter.3__AT3 .def_829)))
(let ((.def_830 (or b.counter.2__AT3 .def_829)))
(let ((.def_4 (not b.counter.2__AT3)))
(let ((.def_828 (or .def_4 .def_9)))
(let ((.def_831 (and .def_828 .def_830)))
(let ((.def_14 (not b.counter.3__AT3)))
(let ((.def_832 (or .def_14 .def_831)))
(let ((.def_834 (and .def_832 .def_833)))
(let ((.def_840 (and .def_834 .def_839)))
(let ((.def_844 (and .def_840 .def_843)))
(let ((.def_823 (<= 0.0 b.delta__AT2)))
(let ((.def_589 (not b.EVENT.0__AT2)))
(let ((.def_587 (not b.EVENT.1__AT2)))
(let ((.def_667 (and .def_587 .def_589)))
(let ((.def_669 (not .def_667)))
(let ((.def_824 (or .def_669 .def_823)))
(let ((.def_825 (or b.EVENT.1__AT2 .def_824)))
(let ((.def_707 (= b.bool_atom__AT2 b.bool_atom__AT3)))
(let ((.def_703 (= b.counter.0__AT3 b.counter.0__AT2)))
(let ((.def_701 (= b.counter.1__AT3 b.counter.1__AT2)))
(let ((.def_699 (= b.counter.2__AT3 b.counter.2__AT2)))
(let ((.def_698 (= b.counter.3__AT3 b.counter.3__AT2)))
(let ((.def_700 (and .def_698 .def_699)))
(let ((.def_702 (and .def_700 .def_701)))
(let ((.def_704 (and .def_702 .def_703)))
(let ((.def_819 (and .def_704 .def_707)))
(let ((.def_820 (or .def_669 .def_819)))
(let ((.def_821 (or b.EVENT.1__AT2 .def_820)))
(let ((.def_807 (* (- 10.0) b.y__AT3)))
(let ((.def_609 (* b.delta__AT2 b.delta__AT2)))
(let ((.def_616 (* (- 49.0) .def_609)))
(let ((.def_811 (+ .def_616 .def_807)))
(let ((.def_607 (* b.speed_y__AT2 b.delta__AT2)))
(let ((.def_608 (* 10.0 .def_607)))
(let ((.def_812 (+ .def_608 .def_811)))
(let ((.def_630 (* 10.0 b.y__AT2)))
(let ((.def_813 (+ .def_630 .def_812)))
(let ((.def_814 (= .def_813 0.0 )))
(let ((.def_802 (* (- 5.0) b.speed_y__AT3)))
(let ((.def_650 (* (- 49.0) b.delta__AT2)))
(let ((.def_803 (+ .def_650 .def_802)))
(let ((.def_652 (* 5.0 b.speed_y__AT2)))
(let ((.def_804 (+ .def_652 .def_803)))
(let ((.def_805 (= .def_804 0.0 )))
(let ((.def_794 (* b.speed_x__AT2 b.delta__AT2)))
(let ((.def_798 (+ .def_795 .def_794)))
(let ((.def_799 (+ b.x__AT2 .def_798)))
(let ((.def_800 (= .def_799 0.0 )))
(let ((.def_693 (= b.speed_x__AT2 b.speed_x__AT3)))
(let ((.def_801 (and .def_693 .def_800)))
(let ((.def_806 (and .def_801 .def_805)))
(let ((.def_815 (and .def_806 .def_814)))
(let ((.def_816 (or .def_669 .def_815)))
(let ((.def_690 (= b.y__AT2 b.y__AT3)))
(let ((.def_687 (= b.x__AT2 b.x__AT3)))
(let ((.def_788 (and .def_687 .def_690)))
(let ((.def_789 (and .def_693 .def_788)))
(let ((.def_696 (= b.speed_y__AT2 b.speed_y__AT3)))
(let ((.def_790 (and .def_696 .def_789)))
(let ((.def_785 (= b.delta__AT2 0.0 )))
(let ((.def_786 (and .def_667 .def_785)))
(let ((.def_787 (not .def_786)))
(let ((.def_791 (or .def_787 .def_790)))
(let ((.def_792 (or b.EVENT.1__AT2 .def_791)))
(let ((.def_777 (and .def_693 .def_696)))
(let ((.def_778 (and .def_704 .def_777)))
(let ((.def_779 (or b.bool_atom__AT2 .def_778)))
(let ((.def_753 (or .def_9 b.counter.0__AT2)))
(let ((.def_752 (or b.counter.0__AT3 .def_502)))
(let ((.def_754 (and .def_752 .def_753)))
(let ((.def_755 (and .def_6 .def_754)))
(let ((.def_756 (or b.counter.1__AT2 .def_755)))
(let ((.def_751 (or b.counter.1__AT3 .def_492)))
(let ((.def_757 (and .def_751 .def_756)))
(let ((.def_768 (and .def_4 .def_757)))
(let ((.def_769 (or b.counter.2__AT2 .def_768)))
(let ((.def_763 (and .def_6 .def_502)))
(let ((.def_764 (or b.counter.1__AT2 .def_763)))
(let ((.def_765 (and .def_751 .def_764)))
(let ((.def_766 (and b.counter.2__AT3 .def_765)))
(let ((.def_767 (or .def_497 .def_766)))
(let ((.def_770 (and .def_767 .def_769)))
(let ((.def_771 (and b.counter.3__AT3 .def_770)))
(let ((.def_772 (or b.counter.3__AT2 .def_771)))
(let ((.def_758 (and b.counter.2__AT3 .def_757)))
(let ((.def_759 (or b.counter.2__AT2 .def_758)))
(let ((.def_747 (or b.counter.1__AT3 b.counter.1__AT2)))
(let ((.def_745 (and .def_6 b.counter.0__AT3)))
(let ((.def_746 (or .def_492 .def_745)))
(let ((.def_748 (and .def_746 .def_747)))
(let ((.def_749 (and .def_4 .def_748)))
(let ((.def_750 (or .def_497 .def_749)))
(let ((.def_760 (and .def_750 .def_759)))
(let ((.def_761 (and .def_14 .def_760)))
(let ((.def_762 (or .def_511 .def_761)))
(let ((.def_773 (and .def_762 .def_772)))
(let ((.def_481 (* b.speed_y__AT2 b.speed_y__AT2)))
(let ((.def_479 (* b.speed_x__AT2 b.speed_x__AT2)))
(let ((.def_737 (+ .def_479 .def_481)))
(let ((.def_208 (* (- 1.0) b.speed_loss__AT0)))
(let ((.def_209 (+ 1.0 .def_208)))
(let ((.def_225 (* .def_209 .def_209)))
(let ((.def_738 (* .def_225 .def_737)))
(let ((.def_740 (* (- 1.0) .def_738)))
(let ((.def_734 (* b.speed_y__AT3 b.speed_y__AT3)))
(let ((.def_741 (+ .def_734 .def_740)))
(let ((.def_732 (* b.speed_x__AT3 b.speed_x__AT3)))
(let ((.def_742 (+ .def_732 .def_741)))
(let ((.def_743 (= .def_742 0.0 )))
(let ((.def_725 (* .def_209 b.speed_y__AT2)))
(let ((.def_466 (* (- 2.0) b.x__AT2)))
(let ((.def_467 (* (- 1.0) .def_466)))
(let ((.def_722 (* .def_209 .def_467)))
(let ((.def_723 (* b.speed_x__AT2 .def_722)))
(let ((.def_728 (+ .def_723 .def_725)))
(let ((.def_719 (* (- 2.0) b.x__AT3)))
(let ((.def_720 (* (- 1.0) .def_719)))
(let ((.def_721 (* b.speed_x__AT3 .def_720)))
(let ((.def_729 (+ .def_721 .def_728)))
(let ((.def_730 (+ b.speed_y__AT3 .def_729)))
(let ((.def_731 (= .def_730 0.0 )))
(let ((.def_744 (and .def_731 .def_743)))
(let ((.def_774 (and .def_744 .def_773)))
(let ((.def_718 (not b.bool_atom__AT2)))
(let ((.def_775 (or .def_718 .def_774)))
(let ((.def_468 (* b.speed_x__AT2 .def_467)))
(let ((.def_713 (+ b.speed_y__AT2 .def_468)))
(let ((.def_714 (<= 0.0 .def_713)))
(let ((.def_715 (not .def_714)))
(let ((.def_546 (* (- 1.0) b.x__AT2)))
(let ((.def_592 (* b.x__AT2 .def_546)))
(let ((.def_712 (= b.y__AT2 .def_592)))
(let ((.def_716 (and .def_712 .def_715)))
(let ((.def_717 (= b.bool_atom__AT2 .def_716)))
(let ((.def_776 (and .def_717 .def_775)))
(let ((.def_780 (and .def_776 .def_779)))
(let ((.def_781 (and .def_687 .def_780)))
(let ((.def_782 (and .def_690 .def_781)))
(let ((.def_783 (or .def_667 .def_782)))
(let ((.def_784 (or b.EVENT.1__AT2 .def_783)))
(let ((.def_793 (and .def_784 .def_792)))
(let ((.def_817 (and .def_793 .def_816)))
(let ((.def_674 (= b.time__AT2 b.time__AT3)))
(let ((.def_688 (and .def_674 .def_687)))
(let ((.def_691 (and .def_688 .def_690)))
(let ((.def_694 (and .def_691 .def_693)))
(let ((.def_697 (and .def_694 .def_696)))
(let ((.def_705 (and .def_697 .def_704)))
(let ((.def_708 (and .def_705 .def_707)))
(let ((.def_709 (or .def_587 .def_708)))
(let ((.def_677 (* (- 1.0) b.time__AT3)))
(let ((.def_680 (+ b.delta__AT2 .def_677)))
(let ((.def_681 (+ b.time__AT2 .def_680)))
(let ((.def_682 (= .def_681 0.0 )))
(let ((.def_683 (or .def_669 .def_682)))
(let ((.def_684 (or b.EVENT.1__AT2 .def_683)))
(let ((.def_675 (or .def_667 .def_674)))
(let ((.def_676 (or b.EVENT.1__AT2 .def_675)))
(let ((.def_685 (and .def_676 .def_684)))
(let ((.def_710 (and .def_685 .def_709)))
(let ((.def_671 (= .def_669 b.event_is_timed__AT3)))
(let ((.def_668 (= b.event_is_timed__AT2 .def_667)))
(let ((.def_672 (and .def_668 .def_671)))
(let ((.def_711 (and .def_672 .def_710)))
(let ((.def_818 (and .def_711 .def_817)))
(let ((.def_822 (and .def_818 .def_821)))
(let ((.def_826 (and .def_822 .def_825)))
(let ((.def_827 (and .def_587 .def_826)))
(let ((.def_845 (and .def_827 .def_844)))
(let ((.def_853 (and .def_845 .def_852)))
(let ((.def_610 (* (- 1.0) b.speed_x__AT2)))
(let ((.def_611 (* b.speed_x__AT2 .def_610)))
(let ((.def_612 (* (- 1.0) .def_611)))
(let ((.def_643 (* 2.0 .def_612)))
(let ((.def_644 (* b.delta__AT2 .def_643)))
(let ((.def_645 (* 5.0 .def_644)))
(let ((.def_623 (* b.speed_x__AT2 .def_546)))
(let ((.def_648 (* (- 5.0) .def_623)))
(let ((.def_654 (+ .def_648 .def_645)))
(let ((.def_618 (* b.x__AT2 .def_610)))
(let ((.def_646 (* (- 5.0) .def_618)))
(let ((.def_655 (+ .def_646 .def_654)))
(let ((.def_656 (+ .def_650 .def_655)))
(let ((.def_657 (+ .def_652 .def_656)))
(let ((.def_661 (<= .def_657 0.0 )))
(let ((.def_624 (* (- 1.0) .def_623)))
(let ((.def_619 (* (- 1.0) .def_618)))
(let ((.def_640 (+ .def_619 .def_624)))
(let ((.def_641 (+ b.speed_y__AT2 .def_640)))
(let ((.def_660 (<= .def_641 0.0 )))
(let ((.def_662 (and .def_660 .def_661)))
(let ((.def_658 (<= 0.0 .def_657)))
(let ((.def_642 (<= 0.0 .def_641)))
(let ((.def_659 (and .def_642 .def_658)))
(let ((.def_663 (or .def_659 .def_662)))
(let ((.def_625 (* b.delta__AT2 .def_624)))
(let ((.def_626 (* 10.0 .def_625)))
(let ((.def_620 (* b.delta__AT2 .def_619)))
(let ((.def_621 (* 10.0 .def_620)))
(let ((.def_632 (+ .def_621 .def_626)))
(let ((.def_613 (* .def_609 .def_612)))
(let ((.def_614 (* 10.0 .def_613)))
(let ((.def_633 (+ .def_614 .def_632)))
(let ((.def_634 (+ .def_616 .def_633)))
(let ((.def_635 (+ .def_608 .def_634)))
(let ((.def_628 (* (- 10.0) .def_592)))
(let ((.def_636 (+ .def_628 .def_635)))
(let ((.def_637 (+ .def_630 .def_636)))
(let ((.def_638 (<= 0.0 .def_637)))
(let ((.def_593 (<= .def_592 b.y__AT2)))
(let ((.def_639 (and .def_593 .def_638)))
(let ((.def_664 (and .def_639 .def_663)))
(let ((.def_665 (and .def_73 .def_664)))
(let ((.def_246 (not b.counter.0__AT1)))
(let ((.def_236 (not b.counter.1__AT1)))
(let ((.def_598 (and .def_236 .def_246)))
(let ((.def_602 (or b.counter.3__AT1 .def_598)))
(let ((.def_599 (or b.counter.2__AT1 .def_598)))
(let ((.def_241 (not b.counter.2__AT1)))
(let ((.def_597 (or .def_236 .def_241)))
(let ((.def_600 (and .def_597 .def_599)))
(let ((.def_255 (not b.counter.3__AT1)))
(let ((.def_601 (or .def_255 .def_600)))
(let ((.def_603 (and .def_601 .def_602)))
(let ((.def_594 (and .def_73 .def_593)))
(let ((.def_590 (or .def_587 .def_589)))
(let ((.def_580 (or .def_492 .def_502)))
(let ((.def_584 (or b.counter.3__AT2 .def_580)))
(let ((.def_581 (or b.counter.2__AT2 .def_580)))
(let ((.def_579 (or .def_497 .def_502)))
(let ((.def_582 (and .def_579 .def_581)))
(let ((.def_583 (or .def_511 .def_582)))
(let ((.def_585 (and .def_583 .def_584)))
(let ((.def_591 (and .def_585 .def_590)))
(let ((.def_595 (and .def_591 .def_594)))
(let ((.def_574 (<= 0.0 b.delta__AT1)))
(let ((.def_333 (not b.EVENT.0__AT1)))
(let ((.def_331 (not b.EVENT.1__AT1)))
(let ((.def_410 (and .def_331 .def_333)))
(let ((.def_412 (not .def_410)))
(let ((.def_575 (or .def_412 .def_574)))
(let ((.def_576 (or b.EVENT.1__AT1 .def_575)))
(let ((.def_454 (= b.bool_atom__AT1 b.bool_atom__AT2)))
(let ((.def_450 (= b.counter.0__AT1 b.counter.0__AT2)))
(let ((.def_447 (= b.counter.1__AT1 b.counter.1__AT2)))
(let ((.def_444 (= b.counter.2__AT1 b.counter.2__AT2)))
(let ((.def_442 (= b.counter.3__AT1 b.counter.3__AT2)))
(let ((.def_445 (and .def_442 .def_444)))
(let ((.def_448 (and .def_445 .def_447)))
(let ((.def_451 (and .def_448 .def_450)))
(let ((.def_570 (and .def_451 .def_454)))
(let ((.def_571 (or .def_412 .def_570)))
(let ((.def_572 (or b.EVENT.1__AT1 .def_571)))
(let ((.def_558 (* (- 10.0) b.y__AT2)))
(let ((.def_352 (* b.delta__AT1 b.delta__AT1)))
(let ((.def_359 (* (- 49.0) .def_352)))
(let ((.def_562 (+ .def_359 .def_558)))
(let ((.def_350 (* b.speed_y__AT1 b.delta__AT1)))
(let ((.def_351 (* 10.0 .def_350)))
(let ((.def_563 (+ .def_351 .def_562)))
(let ((.def_373 (* 10.0 b.y__AT1)))
(let ((.def_564 (+ .def_373 .def_563)))
(let ((.def_565 (= .def_564 0.0 )))
(let ((.def_553 (* (- 5.0) b.speed_y__AT2)))
(let ((.def_393 (* (- 49.0) b.delta__AT1)))
(let ((.def_554 (+ .def_393 .def_553)))
(let ((.def_395 (* 5.0 b.speed_y__AT1)))
(let ((.def_555 (+ .def_395 .def_554)))
(let ((.def_556 (= .def_555 0.0 )))
(let ((.def_545 (* b.speed_x__AT1 b.delta__AT1)))
(let ((.def_549 (+ .def_546 .def_545)))
(let ((.def_550 (+ b.x__AT1 .def_549)))
(let ((.def_551 (= .def_550 0.0 )))
(let ((.def_436 (= b.speed_x__AT1 b.speed_x__AT2)))
(let ((.def_552 (and .def_436 .def_551)))
(let ((.def_557 (and .def_552 .def_556)))
(let ((.def_566 (and .def_557 .def_565)))
(let ((.def_567 (or .def_412 .def_566)))
(let ((.def_433 (= b.y__AT1 b.y__AT2)))
(let ((.def_430 (= b.x__AT1 b.x__AT2)))
(let ((.def_539 (and .def_430 .def_433)))
(let ((.def_540 (and .def_436 .def_539)))
(let ((.def_439 (= b.speed_y__AT1 b.speed_y__AT2)))
(let ((.def_541 (and .def_439 .def_540)))
(let ((.def_536 (= b.delta__AT1 0.0 )))
(let ((.def_537 (and .def_410 .def_536)))
(let ((.def_538 (not .def_537)))
(let ((.def_542 (or .def_538 .def_541)))
(let ((.def_543 (or b.EVENT.1__AT1 .def_542)))
(let ((.def_528 (and .def_436 .def_439)))
(let ((.def_529 (and .def_451 .def_528)))
(let ((.def_530 (or b.bool_atom__AT1 .def_529)))
(let ((.def_503 (or b.counter.0__AT1 .def_502)))
(let ((.def_501 (or .def_246 b.counter.0__AT2)))
(let ((.def_504 (and .def_501 .def_503)))
(let ((.def_505 (and .def_492 .def_504)))
(let ((.def_506 (or b.counter.1__AT1 .def_505)))
(let ((.def_500 (or .def_236 b.counter.1__AT2)))
(let ((.def_507 (and .def_500 .def_506)))
(let ((.def_519 (and .def_497 .def_507)))
(let ((.def_520 (or b.counter.2__AT1 .def_519)))
(let ((.def_514 (and .def_246 .def_492)))
(let ((.def_515 (or b.counter.1__AT1 .def_514)))
(let ((.def_516 (and .def_500 .def_515)))
(let ((.def_517 (and b.counter.2__AT2 .def_516)))
(let ((.def_518 (or .def_241 .def_517)))
(let ((.def_521 (and .def_518 .def_520)))
(let ((.def_522 (and b.counter.3__AT2 .def_521)))
(let ((.def_523 (or b.counter.3__AT1 .def_522)))
(let ((.def_508 (and b.counter.2__AT2 .def_507)))
(let ((.def_509 (or b.counter.2__AT1 .def_508)))
(let ((.def_495 (or b.counter.1__AT1 b.counter.1__AT2)))
(let ((.def_493 (and b.counter.0__AT2 .def_492)))
(let ((.def_494 (or .def_236 .def_493)))
(let ((.def_496 (and .def_494 .def_495)))
(let ((.def_498 (and .def_496 .def_497)))
(let ((.def_499 (or .def_241 .def_498)))
(let ((.def_510 (and .def_499 .def_509)))
(let ((.def_512 (and .def_510 .def_511)))
(let ((.def_513 (or .def_255 .def_512)))
(let ((.def_524 (and .def_513 .def_523)))
(let ((.def_222 (* b.speed_y__AT1 b.speed_y__AT1)))
(let ((.def_220 (* b.speed_x__AT1 b.speed_x__AT1)))
(let ((.def_484 (+ .def_220 .def_222)))
(let ((.def_485 (* .def_225 .def_484)))
(let ((.def_487 (* (- 1.0) .def_485)))
(let ((.def_488 (+ .def_481 .def_487)))
(let ((.def_489 (+ .def_479 .def_488)))
(let ((.def_490 (= .def_489 0.0 )))
(let ((.def_472 (* b.speed_y__AT1 .def_209)))
(let ((.def_205 (* (- 2.0) b.x__AT1)))
(let ((.def_206 (* (- 1.0) .def_205)))
(let ((.def_469 (* .def_206 .def_209)))
(let ((.def_470 (* b.speed_x__AT1 .def_469)))
(let ((.def_475 (+ .def_470 .def_472)))
(let ((.def_476 (+ .def_468 .def_475)))
(let ((.def_477 (+ b.speed_y__AT2 .def_476)))
(let ((.def_478 (= .def_477 0.0 )))
(let ((.def_491 (and .def_478 .def_490)))
(let ((.def_525 (and .def_491 .def_524)))
(let ((.def_465 (not b.bool_atom__AT1)))
(let ((.def_526 (or .def_465 .def_525)))
(let ((.def_207 (* b.speed_x__AT1 .def_206)))
(let ((.def_460 (+ b.speed_y__AT1 .def_207)))
(let ((.def_461 (<= 0.0 .def_460)))
(let ((.def_462 (not .def_461)))
(let ((.def_290 (* (- 1.0) b.x__AT1)))
(let ((.def_336 (* b.x__AT1 .def_290)))
(let ((.def_459 (= b.y__AT1 .def_336)))
(let ((.def_463 (and .def_459 .def_462)))
(let ((.def_464 (= b.bool_atom__AT1 .def_463)))
(let ((.def_527 (and .def_464 .def_526)))
(let ((.def_531 (and .def_527 .def_530)))
(let ((.def_532 (and .def_430 .def_531)))
(let ((.def_533 (and .def_433 .def_532)))
(let ((.def_534 (or .def_410 .def_533)))
(let ((.def_535 (or b.EVENT.1__AT1 .def_534)))
(let ((.def_544 (and .def_535 .def_543)))
(let ((.def_568 (and .def_544 .def_567)))
(let ((.def_417 (= b.time__AT1 b.time__AT2)))
(let ((.def_431 (and .def_417 .def_430)))
(let ((.def_434 (and .def_431 .def_433)))
(let ((.def_437 (and .def_434 .def_436)))
(let ((.def_440 (and .def_437 .def_439)))
(let ((.def_452 (and .def_440 .def_451)))
(let ((.def_455 (and .def_452 .def_454)))
(let ((.def_456 (or .def_331 .def_455)))
(let ((.def_420 (* (- 1.0) b.time__AT2)))
(let ((.def_423 (+ b.delta__AT1 .def_420)))
(let ((.def_424 (+ b.time__AT1 .def_423)))
(let ((.def_425 (= .def_424 0.0 )))
(let ((.def_426 (or .def_412 .def_425)))
(let ((.def_427 (or b.EVENT.1__AT1 .def_426)))
(let ((.def_418 (or .def_410 .def_417)))
(let ((.def_419 (or b.EVENT.1__AT1 .def_418)))
(let ((.def_428 (and .def_419 .def_427)))
(let ((.def_457 (and .def_428 .def_456)))
(let ((.def_414 (= .def_412 b.event_is_timed__AT2)))
(let ((.def_411 (= b.event_is_timed__AT1 .def_410)))
(let ((.def_415 (and .def_411 .def_414)))
(let ((.def_458 (and .def_415 .def_457)))
(let ((.def_569 (and .def_458 .def_568)))
(let ((.def_573 (and .def_569 .def_572)))
(let ((.def_577 (and .def_573 .def_576)))
(let ((.def_578 (and .def_331 .def_577)))
(let ((.def_596 (and .def_578 .def_595)))
(let ((.def_604 (and .def_596 .def_603)))
(let ((.def_353 (* (- 1.0) b.speed_x__AT1)))
(let ((.def_354 (* b.speed_x__AT1 .def_353)))
(let ((.def_355 (* (- 1.0) .def_354)))
(let ((.def_386 (* 2.0 .def_355)))
(let ((.def_387 (* b.delta__AT1 .def_386)))
(let ((.def_388 (* 5.0 .def_387)))
(let ((.def_366 (* b.speed_x__AT1 .def_290)))
(let ((.def_391 (* (- 5.0) .def_366)))
(let ((.def_397 (+ .def_391 .def_388)))
(let ((.def_361 (* b.x__AT1 .def_353)))
(let ((.def_389 (* (- 5.0) .def_361)))
(let ((.def_398 (+ .def_389 .def_397)))
(let ((.def_399 (+ .def_393 .def_398)))
(let ((.def_400 (+ .def_395 .def_399)))
(let ((.def_404 (<= .def_400 0.0 )))
(let ((.def_367 (* (- 1.0) .def_366)))
(let ((.def_362 (* (- 1.0) .def_361)))
(let ((.def_383 (+ .def_362 .def_367)))
(let ((.def_384 (+ b.speed_y__AT1 .def_383)))
(let ((.def_403 (<= .def_384 0.0 )))
(let ((.def_405 (and .def_403 .def_404)))
(let ((.def_401 (<= 0.0 .def_400)))
(let ((.def_385 (<= 0.0 .def_384)))
(let ((.def_402 (and .def_385 .def_401)))
(let ((.def_406 (or .def_402 .def_405)))
(let ((.def_368 (* b.delta__AT1 .def_367)))
(let ((.def_369 (* 10.0 .def_368)))
(let ((.def_363 (* b.delta__AT1 .def_362)))
(let ((.def_364 (* 10.0 .def_363)))
(let ((.def_375 (+ .def_364 .def_369)))
(let ((.def_356 (* .def_352 .def_355)))
(let ((.def_357 (* 10.0 .def_356)))
(let ((.def_376 (+ .def_357 .def_375)))
(let ((.def_377 (+ .def_359 .def_376)))
(let ((.def_378 (+ .def_351 .def_377)))
(let ((.def_371 (* (- 10.0) .def_336)))
(let ((.def_379 (+ .def_371 .def_378)))
(let ((.def_380 (+ .def_373 .def_379)))
(let ((.def_381 (<= 0.0 .def_380)))
(let ((.def_337 (<= .def_336 b.y__AT1)))
(let ((.def_382 (and .def_337 .def_381)))
(let ((.def_407 (and .def_382 .def_406)))
(let ((.def_408 (and .def_73 .def_407)))
(let ((.def_41 (not b.counter.0__AT0)))
(let ((.def_39 (not b.counter.1__AT0)))
(let ((.def_42 (and .def_39 .def_41)))
(let ((.def_345 (or .def_42 b.counter.3__AT0)))
(let ((.def_342 (or .def_42 b.counter.2__AT0)))
(let ((.def_44 (not b.counter.2__AT0)))
(let ((.def_341 (or .def_39 .def_44)))
(let ((.def_343 (and .def_341 .def_342)))
(let ((.def_47 (not b.counter.3__AT0)))
(let ((.def_344 (or .def_47 .def_343)))
(let ((.def_346 (and .def_344 .def_345)))
(let ((.def_338 (and .def_73 .def_337)))
(let ((.def_334 (or .def_331 .def_333)))
(let ((.def_324 (or .def_236 .def_246)))
(let ((.def_328 (or b.counter.3__AT1 .def_324)))
(let ((.def_325 (or b.counter.2__AT1 .def_324)))
(let ((.def_323 (or .def_241 .def_246)))
(let ((.def_326 (and .def_323 .def_325)))
(let ((.def_327 (or .def_255 .def_326)))
(let ((.def_329 (and .def_327 .def_328)))
(let ((.def_335 (and .def_329 .def_334)))
(let ((.def_339 (and .def_335 .def_338)))
(let ((.def_318 (<= 0.0 b.delta__AT0)))
(let ((.def_60 (not b.EVENT.0__AT0)))
(let ((.def_58 (not b.EVENT.1__AT0)))
(let ((.def_144 (and .def_58 .def_60)))
(let ((.def_146 (not .def_144)))
(let ((.def_319 (or .def_146 .def_318)))
(let ((.def_320 (or b.EVENT.1__AT0 .def_319)))
(let ((.def_189 (= b.bool_atom__AT0 b.bool_atom__AT1)))
(let ((.def_184 (= b.counter.0__AT0 b.counter.0__AT1)))
(let ((.def_181 (= b.counter.1__AT0 b.counter.1__AT1)))
(let ((.def_178 (= b.counter.2__AT0 b.counter.2__AT1)))
(let ((.def_176 (= b.counter.3__AT0 b.counter.3__AT1)))
(let ((.def_179 (and .def_176 .def_178)))
(let ((.def_182 (and .def_179 .def_181)))
(let ((.def_185 (and .def_182 .def_184)))
(let ((.def_314 (and .def_185 .def_189)))
(let ((.def_315 (or .def_146 .def_314)))
(let ((.def_316 (or b.EVENT.1__AT0 .def_315)))
(let ((.def_303 (* (- 10.0) b.y__AT1)))
(let ((.def_81 (* b.delta__AT0 b.delta__AT0)))
(let ((.def_90 (* (- 49.0) .def_81)))
(let ((.def_306 (+ .def_90 .def_303)))
(let ((.def_79 (* b.speed_y__AT0 b.delta__AT0)))
(let ((.def_80 (* 10.0 .def_79)))
(let ((.def_307 (+ .def_80 .def_306)))
(let ((.def_105 (* 10.0 b.y__AT0)))
(let ((.def_308 (+ .def_105 .def_307)))
(let ((.def_309 (= .def_308 0.0 )))
(let ((.def_297 (* (- 5.0) b.speed_y__AT1)))
(let ((.def_127 (* (- 49.0) b.delta__AT0)))
(let ((.def_298 (+ .def_127 .def_297)))
(let ((.def_129 (* 5.0 b.speed_y__AT0)))
(let ((.def_299 (+ .def_129 .def_298)))
(let ((.def_300 (= .def_299 0.0 )))
(let ((.def_289 (* b.speed_x__AT0 b.delta__AT0)))
(let ((.def_293 (+ .def_290 .def_289)))
(let ((.def_294 (+ b.x__AT0 .def_293)))
(let ((.def_295 (= .def_294 0.0 )))
(let ((.def_170 (= b.speed_x__AT0 b.speed_x__AT1)))
(let ((.def_296 (and .def_170 .def_295)))
(let ((.def_301 (and .def_296 .def_300)))
(let ((.def_310 (and .def_301 .def_309)))
(let ((.def_311 (or .def_146 .def_310)))
(let ((.def_167 (= b.y__AT0 b.y__AT1)))
(let ((.def_164 (= b.x__AT0 b.x__AT1)))
(let ((.def_283 (and .def_164 .def_167)))
(let ((.def_284 (and .def_170 .def_283)))
(let ((.def_173 (= b.speed_y__AT0 b.speed_y__AT1)))
(let ((.def_285 (and .def_173 .def_284)))
(let ((.def_280 (= b.delta__AT0 0.0 )))
(let ((.def_281 (and .def_144 .def_280)))
(let ((.def_282 (not .def_281)))
(let ((.def_286 (or .def_282 .def_285)))
(let ((.def_287 (or b.EVENT.1__AT0 .def_286)))
(let ((.def_272 (and .def_170 .def_173)))
(let ((.def_273 (and .def_185 .def_272)))
(let ((.def_274 (or b.bool_atom__AT0 .def_273)))
(let ((.def_247 (or b.counter.0__AT0 .def_246)))
(let ((.def_245 (or .def_41 b.counter.0__AT1)))
(let ((.def_248 (and .def_245 .def_247)))
(let ((.def_249 (and .def_236 .def_248)))
(let ((.def_250 (or b.counter.1__AT0 .def_249)))
(let ((.def_244 (or .def_39 b.counter.1__AT1)))
(let ((.def_251 (and .def_244 .def_250)))
(let ((.def_263 (and .def_241 .def_251)))
(let ((.def_264 (or b.counter.2__AT0 .def_263)))
(let ((.def_258 (and .def_41 .def_236)))
(let ((.def_259 (or b.counter.1__AT0 .def_258)))
(let ((.def_260 (and .def_244 .def_259)))
(let ((.def_261 (and b.counter.2__AT1 .def_260)))
(let ((.def_262 (or .def_44 .def_261)))
(let ((.def_265 (and .def_262 .def_264)))
(let ((.def_266 (and b.counter.3__AT1 .def_265)))
(let ((.def_267 (or b.counter.3__AT0 .def_266)))
(let ((.def_252 (and b.counter.2__AT1 .def_251)))
(let ((.def_253 (or b.counter.2__AT0 .def_252)))
(let ((.def_239 (or b.counter.1__AT0 b.counter.1__AT1)))
(let ((.def_237 (and b.counter.0__AT1 .def_236)))
(let ((.def_238 (or .def_39 .def_237)))
(let ((.def_240 (and .def_238 .def_239)))
(let ((.def_242 (and .def_240 .def_241)))
(let ((.def_243 (or .def_44 .def_242)))
(let ((.def_254 (and .def_243 .def_253)))
(let ((.def_256 (and .def_254 .def_255)))
(let ((.def_257 (or .def_47 .def_256)))
(let ((.def_268 (and .def_257 .def_267)))
(let ((.def_227 (* b.speed_y__AT0 b.speed_y__AT0)))
(let ((.def_226 (* b.speed_x__AT0 b.speed_x__AT0)))
(let ((.def_228 (+ .def_226 .def_227)))
(let ((.def_229 (* .def_225 .def_228)))
(let ((.def_231 (* (- 1.0) .def_229)))
(let ((.def_232 (+ .def_222 .def_231)))
(let ((.def_233 (+ .def_220 .def_232)))
(let ((.def_234 (= .def_233 0.0 )))
(let ((.def_213 (* b.speed_y__AT0 .def_209)))
(let ((.def_196 (* (- 2.0) b.x__AT0)))
(let ((.def_197 (* (- 1.0) .def_196)))
(let ((.def_210 (* .def_197 .def_209)))
(let ((.def_211 (* b.speed_x__AT0 .def_210)))
(let ((.def_216 (+ .def_211 .def_213)))
(let ((.def_217 (+ .def_207 .def_216)))
(let ((.def_218 (+ b.speed_y__AT1 .def_217)))
(let ((.def_219 (= .def_218 0.0 )))
(let ((.def_235 (and .def_219 .def_234)))
(let ((.def_269 (and .def_235 .def_268)))
(let ((.def_204 (not b.bool_atom__AT0)))
(let ((.def_270 (or .def_204 .def_269)))
(let ((.def_198 (* b.speed_x__AT0 .def_197)))
(let ((.def_199 (+ b.speed_y__AT0 .def_198)))
(let ((.def_200 (<= 0.0 .def_199)))
(let ((.def_201 (not .def_200)))
(let ((.def_64 (* (- 1.0) b.x__AT0)))
(let ((.def_65 (* b.x__AT0 .def_64)))
(let ((.def_194 (= b.y__AT0 .def_65)))
(let ((.def_202 (and .def_194 .def_201)))
(let ((.def_203 (= b.bool_atom__AT0 .def_202)))
(let ((.def_271 (and .def_203 .def_270)))
(let ((.def_275 (and .def_271 .def_274)))
(let ((.def_276 (and .def_164 .def_275)))
(let ((.def_277 (and .def_167 .def_276)))
(let ((.def_278 (or .def_144 .def_277)))
(let ((.def_279 (or b.EVENT.1__AT0 .def_278)))
(let ((.def_288 (and .def_279 .def_287)))
(let ((.def_312 (and .def_288 .def_311)))
(let ((.def_151 (= b.time__AT0 b.time__AT1)))
(let ((.def_165 (and .def_151 .def_164)))
(let ((.def_168 (and .def_165 .def_167)))
(let ((.def_171 (and .def_168 .def_170)))
(let ((.def_174 (and .def_171 .def_173)))
(let ((.def_186 (and .def_174 .def_185)))
(let ((.def_190 (and .def_186 .def_189)))
(let ((.def_191 (or .def_58 .def_190)))
(let ((.def_154 (* (- 1.0) b.time__AT1)))
(let ((.def_157 (+ b.delta__AT0 .def_154)))
(let ((.def_158 (+ b.time__AT0 .def_157)))
(let ((.def_159 (= .def_158 0.0 )))
(let ((.def_160 (or .def_146 .def_159)))
(let ((.def_161 (or b.EVENT.1__AT0 .def_160)))
(let ((.def_152 (or .def_144 .def_151)))
(let ((.def_153 (or b.EVENT.1__AT0 .def_152)))
(let ((.def_162 (and .def_153 .def_161)))
(let ((.def_192 (and .def_162 .def_191)))
(let ((.def_148 (= .def_146 b.event_is_timed__AT1)))
(let ((.def_145 (= b.event_is_timed__AT0 .def_144)))
(let ((.def_149 (and .def_145 .def_148)))
(let ((.def_193 (and .def_149 .def_192)))
(let ((.def_313 (and .def_193 .def_312)))
(let ((.def_317 (and .def_313 .def_316)))
(let ((.def_321 (and .def_317 .def_320)))
(let ((.def_322 (and .def_58 .def_321)))
(let ((.def_340 (and .def_322 .def_339)))
(let ((.def_347 (and .def_340 .def_346)))
(let ((.def_82 (* (- 1.0) b.speed_x__AT0)))
(let ((.def_83 (* b.speed_x__AT0 .def_82)))
(let ((.def_84 (* (- 1.0) .def_83)))
(let ((.def_118 (* 2.0 .def_84)))
(let ((.def_119 (* b.delta__AT0 .def_118)))
(let ((.def_121 (* 5.0 .def_119)))
(let ((.def_97 (* b.speed_x__AT0 .def_64)))
(let ((.def_125 (* (- 5.0) .def_97)))
(let ((.def_131 (+ .def_125 .def_121)))
(let ((.def_92 (* b.x__AT0 .def_82)))
(let ((.def_123 (* (- 5.0) .def_92)))
(let ((.def_132 (+ .def_123 .def_131)))
(let ((.def_133 (+ .def_127 .def_132)))
(let ((.def_134 (+ .def_129 .def_133)))
(let ((.def_138 (<= .def_134 0.0 )))
(let ((.def_98 (* (- 1.0) .def_97)))
(let ((.def_93 (* (- 1.0) .def_92)))
(let ((.def_115 (+ .def_93 .def_98)))
(let ((.def_116 (+ b.speed_y__AT0 .def_115)))
(let ((.def_137 (<= .def_116 0.0 )))
(let ((.def_139 (and .def_137 .def_138)))
(let ((.def_135 (<= 0.0 .def_134)))
(let ((.def_117 (<= 0.0 .def_116)))
(let ((.def_136 (and .def_117 .def_135)))
(let ((.def_140 (or .def_136 .def_139)))
(let ((.def_99 (* b.delta__AT0 .def_98)))
(let ((.def_100 (* 10.0 .def_99)))
(let ((.def_94 (* b.delta__AT0 .def_93)))
(let ((.def_95 (* 10.0 .def_94)))
(let ((.def_107 (+ .def_95 .def_100)))
(let ((.def_85 (* .def_81 .def_84)))
(let ((.def_86 (* 10.0 .def_85)))
(let ((.def_108 (+ .def_86 .def_107)))
(let ((.def_109 (+ .def_90 .def_108)))
(let ((.def_110 (+ .def_80 .def_109)))
(let ((.def_103 (* (- 10.0) .def_65)))
(let ((.def_111 (+ .def_103 .def_110)))
(let ((.def_112 (+ .def_105 .def_111)))
(let ((.def_113 (<= 0.0 .def_112)))
(let ((.def_66 (<= .def_65 b.y__AT0)))
(let ((.def_114 (and .def_66 .def_113)))
(let ((.def_141 (and .def_114 .def_140)))
(let ((.def_142 (and .def_73 .def_141)))
(let ((.def_74 (and .def_66 .def_73)))
(let ((.def_61 (or .def_58 .def_60)))
(let ((.def_51 (or .def_39 .def_41)))
(let ((.def_55 (or b.counter.3__AT0 .def_51)))
(let ((.def_52 (or b.counter.2__AT0 .def_51)))
(let ((.def_50 (or .def_41 .def_44)))
(let ((.def_53 (and .def_50 .def_52)))
(let ((.def_54 (or .def_47 .def_53)))
(let ((.def_56 (and .def_54 .def_55)))
(let ((.def_62 (and .def_56 .def_61)))
(let ((.def_75 (and .def_62 .def_74)))
(let ((.def_45 (and .def_42 .def_44)))
(let ((.def_48 (and .def_45 .def_47)))
(let ((.def_36 (= b.speed_y__AT0 1.0 )))
(let ((.def_33 (= b.speed_x__AT0 1.0 )))
(let ((.def_29 (= b.y__AT0 10.0 )))
(let ((.def_25 (= b.x__AT0 0.0 )))
(let ((.def_21 (= b.time__AT0 0.0 )))
(let ((.def_23 (and .def_21 b.event_is_timed__AT0)))
(let ((.def_26 (and .def_23 .def_25)))
(let ((.def_30 (and .def_26 .def_29)))
(let ((.def_34 (and .def_30 .def_33)))
(let ((.def_37 (and .def_34 .def_36)))
(let ((.def_49 (and .def_37 .def_48)))
(let ((.def_76 (and .def_49 .def_75)))
(let ((.def_10 (and .def_6 .def_9)))
(let ((.def_16 (or .def_10 b.counter.3__AT3)))
(let ((.def_11 (or b.counter.2__AT3 .def_10)))
(let ((.def_7 (or .def_4 .def_6)))
(let ((.def_12 (and .def_7 .def_11)))
(let ((.def_15 (or .def_12 .def_14)))
(let ((.def_17 (and .def_15 .def_16)))
(let ((.def_18 (not .def_17)))
(let ((.def_77 (and .def_18 .def_76)))
(let ((.def_143 (and .def_77 .def_142)))
(let ((.def_348 (and .def_143 .def_347)))
(let ((.def_409 (and .def_348 .def_408)))
(let ((.def_605 (and .def_409 .def_604)))
(let ((.def_666 (and .def_605 .def_665)))
(let ((.def_854 (and .def_666 .def_853)))
(let ((.def_915 (and .def_854 .def_914)))
.def_915))))))))))))))))))))))))))))))))))))))))))))))))))))))))))))))))))))))))))))))))))))))))))))))))))))))))))))))))))))))))))))))))))))))))))))))))))))))))))))))))))))))))))))))))))))))))))))))))))))))))))))))))))))))))))))))))))))))))))))))))))))))))))))))))))))))))))))))))))))))))))))))))))))))))))))))))))))))))))))))))))))))))))))))))))))))))))))))))))))))))))))))))))))))))))))))))))))))))))))))))))))))))))))))))))))))))))))))))))))))))))))))))))))))))))))))))))))))))))))))))))))))))))))))))))))))))))))))))))))))))))))))))))))))))))))))))))))))))))))))))))))))))))))))))))))))))))))))))))))))))))))))))))))))))))))))))))))))))))))))))))))))))))))))))))))))))))))))))))))))))))))))))))))))))))))))))))))))))))))))))))))))))))))))))))))))))))))))))))))))))))
(check-sat)
(exit)
